Route #1: 1 16 12 7 35 8 19 15 1 
Route #2: 1 2 6 33 44 49 23 1 
Route #3: 1 1 43 42 41 18 25 3 1 
Route #4: 1 22 28 5 13 34 1 
Route #5: 1 30 29 27 46 26 1 
Route #6: 1 21 36 47 48 45 1 
Route #7: 1 40 32 24 1 
Route #8: 1 4 38 39 17 1 
Route #9: 1 37 20 14 10 1 
Route #10: 1 9 31 11 1 

Cost 1097.3
Time 0.5562


 * Another infos *

 Iterations: 50 Time: 0.5562 sec - 0.0093 min - 0.0002 horas
0.0000 h 0.0093 min
Problem dimension: 50
